certificates/rado_a12_c124_N29.cnf
c Rad2 upper bound instance: x1 + 12*x2 - x3 = 124, interval [1,29]
p cnf 29 138
1 9 11 0
-1 -9 -11 0
1 12 21 0
-1 -12 -21 0
2 10 11 0
-2 -10 -11 0
2 12 22 0
-2 -12 -22 0
3 11 0
-3 -11 0
3 12 23 0
-3 -12 -23 0
4 11 12 0
-4 -11 -12 0
4 12 24 0
-4 -12 -24 0
1 5 10 0
-1 -5 -10 0
5 11 13 0
-5 -11 -13 0
5 12 25 0
-5 -12 -25 0
2 6 10 0
-2 -6 -10 0
6 11 14 0
-6 -11 -14 0
6 12 26 0
-6 -12 -26 0
3 7 10 0
-3 -7 -10 0
7 11 15 0
-7 -11 -15 0
7 12 27 0
-7 -12 -27 0
4 8 10 0
-4 -8 -10 0
8 11 16 0
-8 -11 -16 0
8 12 28 0
-8 -12 -28 0
5 9 10 0
-5 -9 -10 0
9 11 17 0
-9 -11 -17 0
9 12 29 0
-9 -12 -29 0
6 10 0
-6 -10 0
10 11 18 0
-10 -11 -18 0
7 10 11 0
-7 -10 -11 0
11 19 0
-11 -19 0
8 10 12 0
-8 -10 -12 0
11 12 20 0
-11 -12 -20 0
9 10 13 0
-9 -10 -13 0
11 13 21 0
-11 -13 -21 0
10 14 0
-10 -14 0
11 14 22 0
-11 -14 -22 0
10 11 15 0
-10 -11 -15 0
11 15 23 0
-11 -15 -23 0
10 12 16 0
-10 -12 -16 0
11 16 24 0
-11 -16 -24 0
1 9 17 0
-1 -9 -17 0
10 13 17 0
-10 -13 -17 0
11 17 25 0
-11 -17 -25 0
2 9 18 0
-2 -9 -18 0
10 14 18 0
-10 -14 -18 0
11 18 26 0
-11 -18 -26 0
3 9 19 0
-3 -9 -19 0
10 15 19 0
-10 -15 -19 0
11 19 27 0
-11 -19 -27 0
4 9 20 0
-4 -9 -20 0
10 16 20 0
-10 -16 -20 0
11 20 28 0
-11 -20 -28 0
5 9 21 0
-5 -9 -21 0
10 17 21 0
-10 -17 -21 0
11 21 29 0
-11 -21 -29 0
6 9 22 0
-6 -9 -22 0
10 18 22 0
-10 -18 -22 0
7 9 23 0
-7 -9 -23 0
10 19 23 0
-10 -19 -23 0
8 9 24 0
-8 -9 -24 0
10 20 24 0
-10 -20 -24 0
9 25 0
-9 -25 0
10 21 25 0
-10 -21 -25 0
9 10 26 0
-9 -10 -26 0
10 22 26 0
-10 -22 -26 0
9 11 27 0
-9 -11 -27 0
10 23 27 0
-10 -23 -27 0
9 12 28 0
-9 -12 -28 0
10 24 28 0
-10 -24 -28 0
1 8 29 0
-1 -8 -29 0
9 13 29 0
-9 -13 -29 0
10 25 29 0
-10 -25 -29 0
