certificates/rado_a12_c124_N29.drat
-25 -26 -29 0
-9 -27 0
d -9 -11 -27 0
9 -29 0
-29 0
-9 0
25 0
12 0
13 0
-5 0
10 0
21 0
-6 0
-14 0
-17 0
0
